p wcnf 126 63 64 
1 118 -38 0 
1 63 -112 0 
1 -31 -80 0 
1 -55 -108 0 
1 -82 -111 0 
1 107 124 0 
1 70 -38 0 
1 -27 -35 0 
1 20 1 0 
1 -116 -103 0 
1 -65 -74 0 
1 95 19 0 
1 32 -69 0 
1 -4 85 0 
1 38 93 0 
1 64 1 0 
1 70 -118 0 
1 -92 -96 0 
1 71 -29 0 
1 -40 -90 0 
1 10 -120 0 
1 -41 -71 0 
1 -51 -34 0 
1 117 -119 0 
1 40 -15 0 
1 -84 -89 0 
1 93 98 0 
1 -122 -104 0 
1 80 51 0 
1 -78 -126 0 
1 -82 7 0 
1 124 -102 0 
1 -85 -123 0 
1 25 38 0 
1 22 -120 0 
1 58 11 0 
1 -64 37 0 
1 -5 -111 0 
1 -82 -22 0 
1 -71 -7 0 
1 7 78 0 
1 -89 -90 0 
1 60 -106 0 
1 60 -98 0 
1 -33 62 0 
1 -29 -121 0 
1 -85 -112 0 
1 -95 48 0 
1 23 58 0 
1 -13 -19 0 
1 -52 -117 0 
1 33 48 0 
1 -97 71 0 
1 76 104 0 
1 -115 20 0 
1 -20 -4 0 
1 -108 -72 0 
1 92 22 0 
1 88 12 0 
1 115 -64 0 
1 -21 74 0 
1 -109 -44 0 
1 -22 71 0 
